c This is a CNF SAT formula in the DIMACS CNF format,
c produced with the bc2cnf translator by Tommi Junttila;
c see http://users.ics.aalto.fi/tjunttil/circuits/index.html
c Cin <-> 289
c B31 <-> 290
c B30 <-> 291
c B29 <-> 292
c B28 <-> 293
c B27 <-> 294
c B26 <-> 295
c B25 <-> 296
c B24 <-> 297
c B23 <-> 298
c B22 <-> 299
c B21 <-> 300
c B20 <-> 301
c B19 <-> 302
c B18 <-> 303
c B17 <-> 304
c B16 <-> 305
c B15 <-> 306
c B14 <-> 307
c B13 <-> 308
c B12 <-> 309
c B11 <-> 310
c B10 <-> 311
c B9 <-> 312
c B8 <-> 313
c B7 <-> 314
c B6 <-> 315
c B5 <-> 316
c B4 <-> 317
c B3 <-> 318
c B2 <-> 319
c B1 <-> 320
c B0 <-> 321
c A31 <-> 322
c A30 <-> 323
c A29 <-> 324
c A28 <-> 325
c A27 <-> 326
c A26 <-> 327
c A25 <-> 328
c A24 <-> 329
c A23 <-> 330
c A22 <-> 331
c A21 <-> 332
c A20 <-> 333
c A19 <-> 334
c A18 <-> 335
c A17 <-> 336
c A16 <-> 337
c A15 <-> 338
c A14 <-> 339
c A13 <-> 340
c A12 <-> 341
c A11 <-> 342
c A10 <-> 343
c A9 <-> 344
c A8 <-> 345
c A7 <-> 346
c A6 <-> 347
c A5 <-> 348
c A4 <-> 349
c A3 <-> 350
c A2 <-> 351
c A1 <-> 352
c A0 <-> 353
p cnf 353 864
-1 -5 0
-1 -9 0
1 9 5 0
-2 -3 0
-2 -4 0
2 4 3 0
-3 -5 0
-3 -10 0
3 10 5 0
-4 -5 0
-4 -6 0
4 6 5 0
-5 -6 0
-5 -10 0
5 10 6 0
-6 -7 0
-6 -8 0
6 8 7 0
-7 -9 0
-7 290 0
7 -290 9 0
-8 -9 0
-8 322 0
8 -322 9 0
-9 290 0
-9 322 0
9 -322 -290 0
-10 -14 0
-10 -18 0
10 18 14 0
-11 -12 0
-11 -13 0
11 13 12 0
-12 -14 0
-12 -19 0
12 19 14 0
-13 -14 0
-13 -15 0
13 15 14 0
-14 -15 0
-14 -19 0
14 19 15 0
-15 -16 0
-15 -17 0
15 17 16 0
-16 -18 0
-16 291 0
16 -291 18 0
-17 -18 0
-17 323 0
17 -323 18 0
-18 291 0
-18 323 0
18 -323 -291 0
-19 -23 0
-19 -27 0
19 27 23 0
-20 -21 0
-20 -22 0
20 22 21 0
-21 -23 0
-21 -28 0
21 28 23 0
-22 -23 0
-22 -24 0
22 24 23 0
-23 -24 0
-23 -28 0
23 28 24 0
-24 -25 0
-24 -26 0
24 26 25 0
-25 -27 0
-25 292 0
25 -292 27 0
-26 -27 0
-26 324 0
26 -324 27 0
-27 292 0
-27 324 0
27 -324 -292 0
-28 -32 0
-28 -36 0
28 36 32 0
-29 -30 0
-29 -31 0
29 31 30 0
-30 -32 0
-30 -37 0
30 37 32 0
-31 -32 0
-31 -33 0
31 33 32 0
-32 -33 0
-32 -37 0
32 37 33 0
-33 -34 0
-33 -35 0
33 35 34 0
-34 -36 0
-34 293 0
34 -293 36 0
-35 -36 0
-35 325 0
35 -325 36 0
-36 293 0
-36 325 0
36 -325 -293 0
-37 -41 0
-37 -45 0
37 45 41 0
-38 -39 0
-38 -40 0
38 40 39 0
-39 -41 0
-39 -46 0
39 46 41 0
-40 -41 0
-40 -42 0
40 42 41 0
-41 -42 0
-41 -46 0
41 46 42 0
-42 -43 0
-42 -44 0
42 44 43 0
-43 -45 0
-43 294 0
43 -294 45 0
-44 -45 0
-44 326 0
44 -326 45 0
-45 294 0
-45 326 0
45 -326 -294 0
-46 -50 0
-46 -54 0
46 54 50 0
-47 -48 0
-47 -49 0
47 49 48 0
-48 -50 0
-48 -55 0
48 55 50 0
-49 -50 0
-49 -51 0
49 51 50 0
-50 -51 0
-50 -55 0
50 55 51 0
-51 -52 0
-51 -53 0
51 53 52 0
-52 -54 0
-52 295 0
52 -295 54 0
-53 -54 0
-53 327 0
53 -327 54 0
-54 295 0
-54 327 0
54 -327 -295 0
-55 -59 0
-55 -63 0
55 63 59 0
-56 -57 0
-56 -58 0
56 58 57 0
-57 -59 0
-57 -64 0
57 64 59 0
-58 -59 0
-58 -60 0
58 60 59 0
-59 -60 0
-59 -64 0
59 64 60 0
-60 -61 0
-60 -62 0
60 62 61 0
-61 -63 0
-61 296 0
61 -296 63 0
-62 -63 0
-62 328 0
62 -328 63 0
-63 296 0
-63 328 0
63 -328 -296 0
-64 -68 0
-64 -72 0
64 72 68 0
-65 -66 0
-65 -67 0
65 67 66 0
-66 -68 0
-66 -73 0
66 73 68 0
-67 -68 0
-67 -69 0
67 69 68 0
-68 -69 0
-68 -73 0
68 73 69 0
-69 -70 0
-69 -71 0
69 71 70 0
-70 -72 0
-70 297 0
70 -297 72 0
-71 -72 0
-71 329 0
71 -329 72 0
-72 297 0
-72 329 0
72 -329 -297 0
-73 -77 0
-73 -81 0
73 81 77 0
-74 -75 0
-74 -76 0
74 76 75 0
-75 -77 0
-75 -82 0
75 82 77 0
-76 -77 0
-76 -78 0
76 78 77 0
-77 -78 0
-77 -82 0
77 82 78 0
-78 -79 0
-78 -80 0
78 80 79 0
-79 -81 0
-79 298 0
79 -298 81 0
-80 -81 0
-80 330 0
80 -330 81 0
-81 298 0
-81 330 0
81 -330 -298 0
-82 -86 0
-82 -90 0
82 90 86 0
-83 -84 0
-83 -85 0
83 85 84 0
-84 -86 0
-84 -91 0
84 91 86 0
-85 -86 0
-85 -87 0
85 87 86 0
-86 -87 0
-86 -91 0
86 91 87 0
-87 -88 0
-87 -89 0
87 89 88 0
-88 -90 0
-88 299 0
88 -299 90 0
-89 -90 0
-89 331 0
89 -331 90 0
-90 299 0
-90 331 0
90 -331 -299 0
-91 -95 0
-91 -99 0
91 99 95 0
-92 -93 0
-92 -94 0
92 94 93 0
-93 -95 0
-93 -100 0
93 100 95 0
-94 -95 0
-94 -96 0
94 96 95 0
-95 -96 0
-95 -100 0
95 100 96 0
-96 -97 0
-96 -98 0
96 98 97 0
-97 -99 0
-97 300 0
97 -300 99 0
-98 -99 0
-98 332 0
98 -332 99 0
-99 300 0
-99 332 0
99 -332 -300 0
-100 -104 0
-100 -108 0
100 108 104 0
-101 -102 0
-101 -103 0
101 103 102 0
-102 -104 0
-102 -109 0
102 109 104 0
-103 -104 0
-103 -105 0
103 105 104 0
-104 -105 0
-104 -109 0
104 109 105 0
-105 -106 0
-105 -107 0
105 107 106 0
-106 -108 0
-106 301 0
106 -301 108 0
-107 -108 0
-107 333 0
107 -333 108 0
-108 301 0
-108 333 0
108 -333 -301 0
-109 -113 0
-109 -117 0
109 117 113 0
-110 -111 0
-110 -112 0
110 112 111 0
-111 -113 0
-111 -118 0
111 118 113 0
-112 -113 0
-112 -114 0
112 114 113 0
-113 -114 0
-113 -118 0
113 118 114 0
-114 -115 0
-114 -116 0
114 116 115 0
-115 -117 0
-115 302 0
115 -302 117 0
-116 -117 0
-116 334 0
116 -334 117 0
-117 302 0
-117 334 0
117 -334 -302 0
-118 -122 0
-118 -126 0
118 126 122 0
-119 -120 0
-119 -121 0
119 121 120 0
-120 -122 0
-120 -127 0
120 127 122 0
-121 -122 0
-121 -123 0
121 123 122 0
-122 -123 0
-122 -127 0
122 127 123 0
-123 -124 0
-123 -125 0
123 125 124 0
-124 -126 0
-124 303 0
124 -303 126 0
-125 -126 0
-125 335 0
125 -335 126 0
-126 303 0
-126 335 0
126 -335 -303 0
-127 -131 0
-127 -135 0
127 135 131 0
-128 -129 0
-128 -130 0
128 130 129 0
-129 -131 0
-129 -136 0
129 136 131 0
-130 -131 0
-130 -132 0
130 132 131 0
-131 -132 0
-131 -136 0
131 136 132 0
-132 -133 0
-132 -134 0
132 134 133 0
-133 -135 0
-133 304 0
133 -304 135 0
-134 -135 0
-134 336 0
134 -336 135 0
-135 304 0
-135 336 0
135 -336 -304 0
-136 -140 0
-136 -144 0
136 144 140 0
-137 -138 0
-137 -139 0
137 139 138 0
-138 -140 0
-138 -145 0
138 145 140 0
-139 -140 0
-139 -141 0
139 141 140 0
-140 -141 0
-140 -145 0
140 145 141 0
-141 -142 0
-141 -143 0
141 143 142 0
-142 -144 0
-142 305 0
142 -305 144 0
-143 -144 0
-143 337 0
143 -337 144 0
-144 305 0
-144 337 0
144 -337 -305 0
-145 -149 0
-145 -153 0
145 153 149 0
-146 -147 0
-146 -148 0
146 148 147 0
-147 -149 0
-147 -154 0
147 154 149 0
-148 -149 0
-148 -150 0
148 150 149 0
-149 -150 0
-149 -154 0
149 154 150 0
-150 -151 0
-150 -152 0
150 152 151 0
-151 -153 0
-151 306 0
151 -306 153 0
-152 -153 0
-152 338 0
152 -338 153 0
-153 306 0
-153 338 0
153 -338 -306 0
-154 -158 0
-154 -162 0
154 162 158 0
-155 -156 0
-155 -157 0
155 157 156 0
-156 -158 0
-156 -163 0
156 163 158 0
-157 -158 0
-157 -159 0
157 159 158 0
-158 -159 0
-158 -163 0
158 163 159 0
-159 -160 0
-159 -161 0
159 161 160 0
-160 -162 0
-160 307 0
160 -307 162 0
-161 -162 0
-161 339 0
161 -339 162 0
-162 307 0
-162 339 0
162 -339 -307 0
-163 -167 0
-163 -171 0
163 171 167 0
-164 -165 0
-164 -166 0
164 166 165 0
-165 -167 0
-165 -172 0
165 172 167 0
-166 -167 0
-166 -168 0
166 168 167 0
-167 -168 0
-167 -172 0
167 172 168 0
-168 -169 0
-168 -170 0
168 170 169 0
-169 -171 0
-169 308 0
169 -308 171 0
-170 -171 0
-170 340 0
170 -340 171 0
-171 308 0
-171 340 0
171 -340 -308 0
-172 -176 0
-172 -180 0
172 180 176 0
-173 -174 0
-173 -175 0
173 175 174 0
-174 -176 0
-174 -181 0
174 181 176 0
-175 -176 0
-175 -177 0
175 177 176 0
-176 -177 0
-176 -181 0
176 181 177 0
-177 -178 0
-177 -179 0
177 179 178 0
-178 -180 0
-178 309 0
178 -309 180 0
-179 -180 0
-179 341 0
179 -341 180 0
-180 309 0
-180 341 0
180 -341 -309 0
-181 -185 0
-181 -189 0
181 189 185 0
-182 -183 0
-182 -184 0
182 184 183 0
-183 -185 0
-183 -190 0
183 190 185 0
-184 -185 0
-184 -186 0
184 186 185 0
-185 -186 0
-185 -190 0
185 190 186 0
-186 -187 0
-186 -188 0
186 188 187 0
-187 -189 0
-187 310 0
187 -310 189 0
-188 -189 0
-188 342 0
188 -342 189 0
-189 310 0
-189 342 0
189 -342 -310 0
-190 -194 0
-190 -198 0
190 198 194 0
-191 -192 0
-191 -193 0
191 193 192 0
-192 -194 0
-192 -199 0
192 199 194 0
-193 -194 0
-193 -195 0
193 195 194 0
-194 -195 0
-194 -199 0
194 199 195 0
-195 -196 0
-195 -197 0
195 197 196 0
-196 -198 0
-196 311 0
196 -311 198 0
-197 -198 0
-197 343 0
197 -343 198 0
-198 311 0
-198 343 0
198 -343 -311 0
-199 -203 0
-199 -207 0
199 207 203 0
-200 -201 0
-200 -202 0
200 202 201 0
-201 -203 0
-201 -208 0
201 208 203 0
-202 -203 0
-202 -204 0
202 204 203 0
-203 -204 0
-203 -208 0
203 208 204 0
-204 -205 0
-204 -206 0
204 206 205 0
-205 -207 0
-205 312 0
205 -312 207 0
-206 -207 0
-206 344 0
206 -344 207 0
-207 312 0
-207 344 0
207 -344 -312 0
-208 -212 0
-208 -216 0
208 216 212 0
-209 -210 0
-209 -211 0
209 211 210 0
-210 -212 0
-210 -217 0
210 217 212 0
-211 -212 0
-211 -213 0
211 213 212 0
-212 -213 0
-212 -217 0
212 217 213 0
-213 -214 0
-213 -215 0
213 215 214 0
-214 -216 0
-214 313 0
214 -313 216 0
-215 -216 0
-215 345 0
215 -345 216 0
-216 313 0
-216 345 0
216 -345 -313 0
-217 -221 0
-217 -225 0
217 225 221 0
-218 -219 0
-218 -220 0
218 220 219 0
-219 -221 0
-219 -226 0
219 226 221 0
-220 -221 0
-220 -222 0
220 222 221 0
-221 -222 0
-221 -226 0
221 226 222 0
-222 -223 0
-222 -224 0
222 224 223 0
-223 -225 0
-223 314 0
223 -314 225 0
-224 -225 0
-224 346 0
224 -346 225 0
-225 314 0
-225 346 0
225 -346 -314 0
-226 -230 0
-226 -234 0
226 234 230 0
-227 -228 0
-227 -229 0
227 229 228 0
-228 -230 0
-228 -235 0
228 235 230 0
-229 -230 0
-229 -231 0
229 231 230 0
-230 -231 0
-230 -235 0
230 235 231 0
-231 -232 0
-231 -233 0
231 233 232 0
-232 -234 0
-232 315 0
232 -315 234 0
-233 -234 0
-233 347 0
233 -347 234 0
-234 315 0
-234 347 0
234 -347 -315 0
-235 -239 0
-235 -243 0
235 243 239 0
-236 -237 0
-236 -238 0
236 238 237 0
-237 -239 0
-237 -244 0
237 244 239 0
-238 -239 0
-238 -240 0
238 240 239 0
-239 -240 0
-239 -244 0
239 244 240 0
-240 -241 0
-240 -242 0
240 242 241 0
-241 -243 0
-241 316 0
241 -316 243 0
-242 -243 0
-242 348 0
242 -348 243 0
-243 316 0
-243 348 0
243 -348 -316 0
-244 -248 0
-244 -252 0
244 252 248 0
-245 -246 0
-245 -247 0
245 247 246 0
-246 -248 0
-246 -253 0
246 253 248 0
-247 -248 0
-247 -249 0
247 249 248 0
-248 -249 0
-248 -253 0
248 253 249 0
-249 -250 0
-249 -251 0
249 251 250 0
-250 -252 0
-250 317 0
250 -317 252 0
-251 -252 0
-251 349 0
251 -349 252 0
-252 317 0
-252 349 0
252 -349 -317 0
-253 -257 0
-253 -261 0
253 261 257 0
-254 -255 0
-254 -256 0
254 256 255 0
-255 -257 0
-255 -262 0
255 262 257 0
-256 -257 0
-256 -258 0
256 258 257 0
-257 -258 0
-257 -262 0
257 262 258 0
-258 -259 0
-258 -260 0
258 260 259 0
-259 -261 0
-259 318 0
259 -318 261 0
-260 -261 0
-260 350 0
260 -350 261 0
-261 318 0
-261 350 0
261 -350 -318 0
-262 -266 0
-262 -270 0
262 270 266 0
-263 -264 0
-263 -265 0
263 265 264 0
-264 -266 0
-264 -271 0
264 271 266 0
-265 -266 0
-265 -267 0
265 267 266 0
-266 -267 0
-266 -271 0
266 271 267 0
-267 -268 0
-267 -269 0
267 269 268 0
-268 -270 0
-268 319 0
268 -319 270 0
-269 -270 0
-269 351 0
269 -351 270 0
-270 319 0
-270 351 0
270 -351 -319 0
-271 -275 0
-271 -279 0
271 279 275 0
-272 -273 0
-272 -274 0
272 274 273 0
-273 -275 0
-273 -280 0
273 280 275 0
-274 -275 0
-274 -276 0
274 276 275 0
-275 -276 0
-275 -280 0
275 280 276 0
-276 -277 0
-276 -278 0
276 278 277 0
-277 -279 0
-277 320 0
277 -320 279 0
-278 -279 0
-278 352 0
278 -352 279 0
-279 320 0
-279 352 0
279 -352 -320 0
-280 -284 0
-280 -288 0
280 288 284 0
-281 -282 0
-281 -283 0
281 283 282 0
-282 -284 0
-282 289 0
282 -289 284 0
-283 -284 0
-283 -285 0
283 285 284 0
-284 -285 0
-284 289 0
284 -289 285 0
-285 -286 0
-285 -287 0
285 287 286 0
-286 -288 0
-286 321 0
286 -321 288 0
-287 -288 0
-287 353 0
287 -353 288 0
-288 321 0
-288 353 0
288 -353 -321 0